p td 120 119
0 1
0 4
0 5
0 12
0 62
0 86
1 2
1 3
1 6
1 7
1 8
1 9
1 22
1 42
1 46
1 52
1 68
1 77
1 87
1 90
1 94
1 101
1 112
2 21
2 69
2 72
3 16
3 25
3 26
3 61
3 89
4 10
4 11
4 29
4 33
4 35
4 55
4 107
7 14
7 17
7 31
7 32
9 24
9 117
10 13
10 18
10 38
10 84
11 34
11 92
12 66
12 118
13 15
13 97
13 104
13 115
14 19
14 65
14 103
15 27
16 60
17 23
17 58
17 93
19 20
19 57
19 82
21 76
22 48
22 95
24 37
25 36
25 39
25 78
25 81
25 98
26 28
26 30
26 41
26 47
26 50
26 51
26 64
26 75
26 80
26 83
26 85
26 88
26 105
26 108
27 45
27 54
27 102
27 106
28 49
31 71
35 44
36 40
36 43
38 67
40 74
41 73
45 56
47 53
47 91
47 111
50 96
54 59
54 109
56 70
62 63
62 110
65 79
79 113
86 99
91 114
95 100
99 116
101 119
